
Gurobi 9.5.2 (mac64[arm]) logging started Mon Apr 24 16:30:18 2023

Set parameter LogFile to value "Java/output/iterative_model/scenario_seed_3_nJob_30_machineCount_1/mip_increment_2/log.txt"
Gurobi Optimizer version 9.5.2 build v9.5.2rc0 (mac64[arm])
Thread count: 8 physical cores, 8 logical processors, using up to 8 threads
Optimize a model with 782 rows, 3660 columns and 28206 nonzeros
Model fingerprint: 0xdc4b9dda
Variable types: 0 continuous, 3660 integer (3660 binary)
Coefficient statistics:
  Matrix range     [1e+00, 3e+02]
  Objective range  [2e+01, 6e+06]
  Bounds range     [1e+00, 1e+00]
  RHS range        [1e+00, 1e+00]
Found heuristic solution: objective 2.800736e+07
Presolve removed 107 rows and 490 columns
Presolve time: 0.05s
Presolved: 675 rows, 3170 columns, 23621 nonzeros
Variable types: 0 continuous, 3170 integer (3164 binary)
Found heuristic solution: objective 2.698285e+07

Root relaxation: objective 4.485146e+04, 1149 iterations, 0.02 seconds (0.04 work units)

    Nodes    |    Current Node    |     Objective Bounds      |     Work
 Expl Unexpl |  Obj  Depth IntInf | Incumbent    BestBd   Gap | It/Node Time

     0     0 44851.4622    0   92 2.6983e+07 44851.4622   100%     -    0s
H    0     0                    1.163165e+07 44851.4622   100%     -    0s
H    0     0                    709280.00000 44851.4622  93.7%     -    0s
H    0     0                    670752.00000 44851.4622  93.3%     -    0s
     0     0 49973.5278    0  116 670752.000 49973.5278  92.5%     -    0s
     0     0 49973.5278    0   93 670752.000 49973.5278  92.5%     -    0s
H    0     0                    578464.00000 49973.5278  91.4%     -    0s
     0     0 53865.8628    0  121 578464.000 53865.8628  90.7%     -    0s
H    0     0                    404928.00000 53905.7815  86.7%     -    0s
H    0     0                    399680.00000 53905.7815  86.5%     -    0s
     0     0 53905.7815    0  123 399680.000 53905.7815  86.5%     -    0s
     0     0 53905.7815    0  123 399680.000 53905.7815  86.5%     -    0s
H    0     0                    388768.00000 63847.8734  83.6%     -    0s
     0     0 65229.0681    0  140 388768.000 65229.0681  83.2%     -    0s
     0     0 65229.0681    0  133 388768.000 65229.0681  83.2%     -    0s
     0     2 65229.0681    0  133 388768.000 65229.0681  83.2%     -    0s
H   31    35                    387360.00000 75632.4751  80.5%   266    0s
H   36    35                    352160.00000 75632.4751  78.5%   270    0s
H   37    35                    351456.00000 75632.4751  78.5%   263    0s
H   84    76                    350496.00000 75632.4751  78.4%   180    0s
H  279   176                    350400.00000 75632.4751  78.4%   128    0s
H  657   431                    267456.00000 94318.0830  64.7%   102    1s
H  994   450                    230720.00000 97459.7434  57.8%   105    1s
H 1435   564                    219136.00000 112324.771  48.7%   102    1s
H 1446   544                    216544.00000 112324.771  48.1%   101    1s
H 1510   507                    210112.00000 112324.771  46.5%   102    2s
H 1703   498                    184640.00000 112324.771  39.2%  99.3    2s

Explored 2540 nodes (223273 simplex iterations) in 2.43 seconds (5.22 work units)
Thread count was 8 (of 8 available processors)

Solution count 10: 184640 210112 216544 ... 352160

Optimal solution found (tolerance 1.00e-04)
Best objective 1.846400000000e+05, best bound 1.846400000000e+05, gap 0.0000%

Gurobi 9.5.2 (mac64[arm]) logging started Mon Apr 24 16:30:20 2023

Set parameter LogFile to value "Java/output/iterative_model/scenario_seed_3_nJob_30_machineCount_1/mip_increment_2/log.txt"
Gurobi Optimizer version 9.5.2 build v9.5.2rc0 (mac64[arm])
Thread count: 8 physical cores, 8 logical processors, using up to 8 threads
Optimize a model with 772 rows, 2040 columns and 13955 nonzeros
Model fingerprint: 0x8ea7efdf
Variable types: 0 continuous, 2040 integer (2040 binary)
Coefficient statistics:
  Matrix range     [1e+00, 3e+02]
  Objective range  [3e+02, 8e+05]
  Bounds range     [1e+00, 1e+00]
  RHS range        [1e+00, 1e+00]
Presolve removed 348 rows and 215 columns
Presolve time: 0.02s
Presolved: 424 rows, 1825 columns, 11747 nonzeros
Variable types: 0 continuous, 1825 integer (1823 binary)

Root relaxation: objective 1.053559e+05, 641 iterations, 0.01 seconds (0.01 work units)

    Nodes    |    Current Node    |     Objective Bounds      |     Work
 Expl Unexpl |  Obj  Depth IntInf | Incumbent    BestBd   Gap | It/Node Time

     0     0 105355.878    0   41          - 105355.878      -     -    0s
H    0     0                    692040.00000 105355.878  84.8%     -    0s
H    0     0                    184824.00000 105355.878  43.0%     -    0s
H    0     0                    176896.00000 105355.878  40.4%     -    0s
     0     0 106241.169    0   62 176896.000 106241.169  39.9%     -    0s
     0     0 106241.169    0   41 176896.000 106241.169  39.9%     -    0s
     0     0 106410.352    0   61 176896.000 106410.352  39.8%     -    0s
H    0     0                    168224.00000 106410.352  36.7%     -    0s
     0     0 106416.923    0   62 168224.000 106416.923  36.7%     -    0s
H    0     0                    168216.00000 109775.462  34.7%     -    0s
     0     0 109775.462    0   69 168216.000 109775.462  34.7%     -    0s
H    0     0                    165264.00000 109775.462  33.6%     -    0s
     0     0 110842.476    0   72 165264.000 110842.476  32.9%     -    0s
     0     0 110953.488    0   73 165264.000 110953.488  32.9%     -    0s
     0     0 111162.524    0   73 165264.000 111162.524  32.7%     -    0s
H    0     0                    164463.99928 113803.906  30.8%     -    0s
     0     0 116127.221    0   64 164463.999 116127.221  29.4%     -    0s
     0     0 116400.344    0   78 164463.999 116400.344  29.2%     -    0s
     0     0 116472.047    0   77 164463.999 116472.047  29.2%     -    0s
     0     0 116500.828    0   80 164463.999 116500.828  29.2%     -    0s
     0     0 116502.014    0   82 164463.999 116502.014  29.2%     -    0s
H    0     0                    151719.99965 116502.014  23.2%     -    0s
     0     0 124657.347    0   84 151720.000 124657.347  17.8%     -    0s
     0     0 131593.300    0   85 151720.000 131593.300  13.3%     -    0s
     0     0 132005.137    0   73 151720.000 132005.137  13.0%     -    0s
     0     0 132005.137    0   79 151720.000 132005.137  13.0%     -    0s
     0     0 135387.068    0   85 151720.000 135387.068  10.8%     -    0s
     0     0 136446.712    0   85 151720.000 136446.712  10.1%     -    0s
     0     0 136794.626    0   88 151720.000 136794.626  9.84%     -    0s
     0     0 136888.655    0   91 151720.000 136888.655  9.78%     -    0s
     0     0 136893.327    0   94 151720.000 136893.327  9.77%     -    0s
     0     0 140182.669    0   90 151720.000 140182.669  7.60%     -    0s
     0     0 140202.643    0   83 151720.000 140202.643  7.59%     -    0s
     0     0 140235.856    0   87 151720.000 140235.856  7.57%     -    0s
     0     0 140283.880    0   88 151720.000 140283.880  7.54%     -    0s
     0     0 140338.524    0   83 151720.000 140338.524  7.50%     -    0s
     0     0 140338.524    0   84 151720.000 140338.524  7.50%     -    0s
     0     0 141806.499    0   89 151720.000 141806.499  6.53%     -    0s
H    0     0                    145008.00000 141806.499  2.21%     -    0s
     0     0 143658.143    0   63 145008.000 143658.143  0.93%     -    0s
     0     0 143684.411    0   69 145008.000 143684.411  0.91%     -    0s
     0     0 143783.977    0   69 145008.000 143783.977  0.84%     -    0s
     0     0 143784.692    0   76 145008.000 143784.692  0.84%     -    0s
*    0     0               0    144352.00000 144352.000  0.00%     -    0s

Cutting planes:
  Cover: 4
  Clique: 15
  MIR: 18
  StrongCG: 11
  GUB cover: 31
  Zero half: 3
  RLT: 1

Explored 1 nodes (2708 simplex iterations) in 0.22 seconds (0.28 work units)
Thread count was 8 (of 8 available processors)

Solution count 10: 144352 145008 151720 ... 267552

Optimal solution found (tolerance 1.00e-04)
Best objective 1.443520000000e+05, best bound 1.443520000000e+05, gap 0.0000%

Gurobi 9.5.2 (mac64[arm]) logging started Mon Apr 24 16:30:21 2023

Set parameter LogFile to value "Java/output/iterative_model/scenario_seed_3_nJob_30_machineCount_1/mip_increment_2/log.txt"
Gurobi Optimizer version 9.5.2 build v9.5.2rc0 (mac64[arm])
Thread count: 8 physical cores, 8 logical processors, using up to 8 threads
Optimize a model with 776 rows, 1411 columns and 10119 nonzeros
Model fingerprint: 0xbb3f6171
Variable types: 0 continuous, 1411 integer (1411 binary)
Coefficient statistics:
  Matrix range     [1e+00, 3e+02]
  Objective range  [1e+02, 9e+04]
  Bounds range     [1e+00, 1e+00]
  RHS range        [1e+00, 1e+00]
Presolve removed 491 rows and 360 columns
Presolve time: 0.01s
Presolved: 285 rows, 1051 columns, 7649 nonzeros
Variable types: 0 continuous, 1051 integer (1051 binary)

Root relaxation: objective 5.154707e+04, 567 iterations, 0.01 seconds (0.01 work units)

    Nodes    |    Current Node    |     Objective Bounds      |     Work
 Expl Unexpl |  Obj  Depth IntInf | Incumbent    BestBd   Gap | It/Node Time

     0     0 51547.0714    0   36          - 51547.0714      -     -    0s
H    0     0                    124485.00000 51547.0714  58.6%     -    0s
H    0     0                    99661.000000 51547.0714  48.3%     -    0s
     0     0 51949.2545    0   72 99661.0000 51949.2545  47.9%     -    0s
H    0     0                    65487.000000 52951.0952  19.1%     -    0s
H    0     0                    61161.000000 52951.0952  13.4%     -    0s
     0     0 53414.7143    0   79 61161.0000 53414.7143  12.7%     -    0s
H    0     0                    59879.000000 53414.7143  10.8%     -    0s
     0     0 53784.9840    0   90 59879.0000 53784.9840  10.2%     -    0s
     0     0 53865.7295    0   93 59879.0000 53865.7295  10.0%     -    0s
     0     0 53892.7980    0   85 59879.0000 53892.7980  10.0%     -    0s
     0     0 53960.8532    0   83 59879.0000 53960.8532  9.88%     -    0s
     0     0 53960.8532    0   90 59879.0000 53960.8532  9.88%     -    0s
     0     0 54626.8571    0  110 59879.0000 54626.8571  8.77%     -    0s
     0     0 54626.8571    0   44 59879.0000 54626.8571  8.77%     -    0s
     0     0 54626.8571    0   68 59879.0000 54626.8571  8.77%     -    0s
     0     0 54885.2995    0   86 59879.0000 54885.2995  8.34%     -    0s
     0     0 55193.3751    0  112 59879.0000 55193.3751  7.83%     -    0s
     0     0 55225.8000    0   73 59879.0000 55225.8000  7.77%     -    0s
     0     0 55228.7994    0   75 59879.0000 55228.7994  7.77%     -    0s
     0     0 56836.8213    0   98 59879.0000 56836.8213  5.08%     -    0s
     0     0 56866.4457    0   92 59879.0000 56866.4457  5.03%     -    0s
     0     0 58327.7083    0   79 59879.0000 58327.7083  2.59%     -    0s
     0     0 59658.3392    0   89 59879.0000 59658.3392  0.37%     -    0s
     0     0 59679.2000    0   74 59879.0000 59679.2000  0.33%     -    0s
     0     0 59694.3506    0   84 59879.0000 59694.3506  0.31%     -    0s
     0     0 59695.2120    0   86 59879.0000 59695.2120  0.31%     -    0s
     0     0     cutoff    0      59879.0000 59879.0000  0.00%     -    0s

Cutting planes:
  Gomory: 1
  Clique: 27
  MIR: 14
  StrongCG: 9
  GUB cover: 16
  Zero half: 9
  Mod-K: 2
  RLT: 2

Explored 1 nodes (4082 simplex iterations) in 0.24 seconds (0.28 work units)
Thread count was 8 (of 8 available processors)

Solution count 5: 59879 61161 65487 ... 124485

Optimal solution found (tolerance 1.00e-04)
Best objective 5.987900000000e+04, best bound 5.987900000000e+04, gap 0.0000%

Gurobi 9.5.2 (mac64[arm]) logging started Mon Apr 24 16:30:21 2023

Set parameter LogFile to value "Java/output/iterative_model/scenario_seed_3_nJob_30_machineCount_1/mip_increment_2/log.txt"
Gurobi Optimizer version 9.5.2 build v9.5.2rc0 (mac64[arm])
Thread count: 8 physical cores, 8 logical processors, using up to 8 threads
Optimize a model with 1592 rows, 19926 columns and 239333 nonzeros
Model fingerprint: 0xa4829ac0
Variable types: 0 continuous, 19926 integer (19926 binary)
Coefficient statistics:
  Matrix range     [1e+00, 3e+02]
  Objective range  [1e+00, 6e+06]
  Bounds range     [1e+00, 1e+00]
  RHS range        [1e+00, 1e+00]

Warning: Completing partial solution with 19844 unfixed non-continuous variables out of 19926
User MIP start produced solution with objective 215916 (0.02s)
Loaded user MIP start with objective 215916

Presolve removed 62 rows and 1846 columns
Presolve time: 0.28s
Presolved: 1530 rows, 18080 columns, 214951 nonzeros
Variable types: 0 continuous, 18080 integer (18066 binary)
Found heuristic solution: objective 215540.00000

Root relaxation: objective 2.760364e+04, 19931 iterations, 1.62 seconds (3.77 work units)

    Nodes    |    Current Node    |     Objective Bounds      |     Work
 Expl Unexpl |  Obj  Depth IntInf | Incumbent    BestBd   Gap | It/Node Time

     0     0 27603.6351    0  281 215540.000 27603.6351  87.2%     -    2s
H    0     0                    215504.00000 27603.6351  87.2%     -    2s
H    0     0                    214848.00000 27603.6351  87.2%     -    2s
H    0     0                    191021.00000 27603.6351  85.5%     -    2s
     0     0 31465.6362    0  393 191021.000 31465.6362  83.5%     -    3s
H    0     0                    190849.00000 31465.6362  83.5%     -    3s
     0     0 31476.0552    0  415 190849.000 31476.0552  83.5%     -    3s
     0     0 31477.3550    0  406 190849.000 31477.3550  83.5%     -    3s
     0     0 31477.3550    0  405 190849.000 31477.3550  83.5%     -    3s
H    0     0                    190387.00000 34147.1228  82.1%     -    6s
     0     0 34147.1228    0  464 190387.000 34147.1228  82.1%     -    6s
H    0     0                    190343.00000 34147.1228  82.1%     -    6s
     0     0 34180.6532    0  487 190343.000 34180.6532  82.0%     -    6s
     0     0 34215.8105    0  496 190343.000 34215.8105  82.0%     -    7s
     0     0 34241.0325    0  474 190343.000 34241.0325  82.0%     -    7s
     0     0 34262.1531    0  494 190343.000 34262.1531  82.0%     -    7s
     0     0 34262.1910    0  491 190343.000 34262.1910  82.0%     -    7s
     0     0 55404.8674    0  469 190343.000 55404.8674  70.9%     -    9s
H    0     0                    186127.00000 55404.8674  70.2%     -    9s
     0     0 55545.1010    0  439 186127.000 55545.1010  70.2%     -    9s
     0     0 55552.8989    0  432 186127.000 55552.8989  70.2%     -    9s
     0     0 55557.7806    0  436 186127.000 55557.7806  70.2%     -    9s
     0     0 70251.2698    0  447 186127.000 70251.2698  62.3%     -   11s
H    0     0                    185665.00000 70251.2698  62.2%     -   11s
     0     0 72189.0080    0  454 185665.000 72189.0080  61.1%     -   12s
     0     0 72310.6545    0  449 185665.000 72310.6545  61.1%     -   12s
     0     0 72318.5212    0  448 185665.000 72318.5212  61.0%     -   12s
     0     0 77933.2801    0  444 185665.000 77933.2801  58.0%     -   14s
     0     0 77933.2801    0  254 185665.000 77933.2801  58.0%     -   16s
H    0     0                    185661.00000 77933.2801  58.0%     -   18s
     0     0 77933.2801    0  441 185661.000 77933.2801  58.0%     -   18s
     0     0 77933.2801    0  452 185661.000 77933.2801  58.0%     -   19s
H    0     0                    185660.00000 77933.2801  58.0%     -   19s
     0     0 77933.2801    0  475 185660.000 77933.2801  58.0%     -   19s
     0     0 78043.8783    0  466 185660.000 78043.8783  58.0%     -   20s
     0     0 78045.6088    0  470 185660.000 78045.6088  58.0%     -   20s
H    0     0                    185655.00000 78045.6088  58.0%     -   21s
     0     0 83622.4625    0  467 185655.000 83622.4625  55.0%     -   21s
     0     0 84107.6871    0  464 185655.000 84107.6871  54.7%     -   22s
     0     0 84129.6354    0  501 185655.000 84129.6354  54.7%     -   22s
     0     0 84130.9458    0  497 185655.000 84130.9458  54.7%     -   22s
     0     0 90718.1064    0  505 185655.000 90718.1064  51.1%     -   24s
H    0     0                    185602.00000 90718.1064  51.1%     -   24s
H    0     0                    185591.00000 90718.1064  51.1%     -   25s
     0     0 91593.6550    0  502 185591.000 91593.6550  50.6%     -   25s
H    0     0                    182990.00000 91593.6550  49.9%     -   26s
     0     0 93375.2316    0  552 182990.000 93375.2316  49.0%     -   26s
     0     0 94538.8039    0  583 182990.000 94538.8039  48.3%     -   26s
     0     0 95063.4819    0  592 182990.000 95063.4819  48.0%     -   27s
     0     0 95204.5379    0  584 182990.000 95204.5379  48.0%     -   27s
     0     0 95207.8187    0  568 182990.000 95207.8187  48.0%     -   27s
     0     0 97823.6117    0  534 182990.000 97823.6117  46.5%     -   29s
     0     0 101615.506    0  565 182990.000 101615.506  44.5%     -   30s
     0     0 104131.810    0  582 182990.000 104131.810  43.1%     -   31s
     0     0 104239.652    0  607 182990.000 104239.652  43.0%     -   31s
     0     0 104304.109    0  602 182990.000 104304.109  43.0%     -   32s
     0     0 104318.718    0  617 182990.000 104318.718  43.0%     -   32s
     0     0 107056.426    0  596 182990.000 107056.426  41.5%     -   33s
H    0     0                    177683.00000 107056.426  39.7%     -   33s
     0     0 109615.471    0  603 177683.000 109615.471  38.3%     -   35s
     0     0 109806.549    0  584 177683.000 109806.549  38.2%     -   36s
     0     0 109836.592    0  600 177683.000 109836.592  38.2%     -   36s
     0     0 110723.265    0  631 177683.000 110723.265  37.7%     -   37s
H    0     0                    177682.00000 110723.265  37.7%     -   37s
     0     0 110942.868    0  625 177682.000 110942.868  37.6%     -   38s
     0     0 111184.306    0  647 177682.000 111184.306  37.4%     -   39s
     0     0 111255.229    0  638 177682.000 111255.229  37.4%     -   39s
     0     0 111267.857    0  641 177682.000 111267.857  37.4%     -   39s
     0     0 112538.619    0  660 177682.000 112538.619  36.7%     -   41s
     0     0 112787.971    0  652 177682.000 112787.971  36.5%     -   42s
     0     0 112823.445    0  661 177682.000 112823.445  36.5%     -   42s
     0     0 113398.653    0  655 177682.000 113398.653  36.2%     -   44s
     0     0 113556.231    0  685 177682.000 113556.231  36.1%     -   44s
     0     0 113614.616    0  661 177682.000 113614.616  36.1%     -   45s
     0     0 113629.130    0  683 177682.000 113629.130  36.0%     -   45s
     0     0 114790.059    0  689 177682.000 114790.059  35.4%     -   46s
     0     0 114967.465    0  718 177682.000 114967.465  35.3%     -   47s
     0     0 115017.124    0  749 177682.000 115017.124  35.3%     -   48s
     0     0 116055.932    0  700 177682.000 116055.932  34.7%     -   50s
H    0     0                    159825.00000 116055.932  27.4%     -   50s
     0     0 117076.567    0  736 159825.000 117076.567  26.7%     -   52s
     0     0 117187.218    0  752 159825.000 117187.218  26.7%     -   52s
     0     0 117247.620    0  745 159825.000 117247.620  26.6%     -   52s
     0     0 117250.788    0  764 159825.000 117250.788  26.6%     -   53s
     0     0 118355.005    0  738 159825.000 118355.005  25.9%     -   54s
H    0     0                    157991.00000 118355.005  25.1%     -   54s
     0     0 118525.118    0  742 157991.000 118525.118  25.0%     -   55s
     0     0 118578.049    0  721 157991.000 118578.049  24.9%     -   55s
     0     0 119596.241    0  733 157991.000 119596.241  24.3%     -   57s
H    0     0                    138536.00000 119596.241  13.7%     -   57s
     0     0 119752.842    0  742 138536.000 119752.842  13.6%     -   58s
     0     0 119798.987    0  745 138536.000 119798.987  13.5%     -   58s
     0     0 120069.265    0  758 138536.000 120069.265  13.3%     -   59s
     0     0 120077.470    0  748 138536.000 120077.470  13.3%     -   60s
H    0     0                    138480.00000 120101.759  13.3%     -   63s
     0     0 120101.759    0  270 138480.000 120101.759  13.3%     -   64s
     0     0 120101.759    0  460 138480.000 120101.759  13.3%     -   65s
H    0     0                    137039.00000 120101.759  12.4%     -   65s
     0     0 120101.759    0  509 137039.000 120101.759  12.4%     -   65s
     0     0 122236.233    0  603 137039.000 122236.233  10.8%     -   66s
     0     0 123079.444    0  663 137039.000 123079.444  10.2%     -   66s
     0     0 123120.166    0  665 137039.000 123120.166  10.2%     -   67s
     0     0 123175.969    0  643 137039.000 123175.969  10.1%     -   67s
     0     0 123184.336    0  656 137039.000 123184.336  10.1%     -   67s
     0     0 125047.751    0  651 137039.000 125047.751  8.75%     -   68s
H    0     0                    137025.00000 125047.751  8.74%     -   68s
     0     0 125691.996    0  687 137025.000 125691.996  8.27%     -   69s
     0     0 125775.567    0  682 137025.000 125775.567  8.21%     -   69s
     0     0 125811.036    0  690 137025.000 125811.036  8.18%     -   69s
     0     0 125814.051    0  716 137025.000 125814.051  8.18%     -   69s
     0     0 127984.742    0  741 137025.000 127984.742  6.60%     -   72s
     0     0 128797.921    0  726 137025.000 128797.921  6.00%     -   73s
     0     0 129238.365    0  743 137025.000 129238.365  5.68%     -   73s
     0     0 129259.826    0  728 137025.000 129259.826  5.67%     -   74s
H    0     0                    136938.00000 129259.826  5.61%     -   75s
     0     0 130293.110    0  748 136938.000 130293.110  4.85%     -   76s
H    0     0                    136936.00000 130293.110  4.85%     -   76s
     0     0 130705.831    0  791 136936.000 130705.831  4.55%     -   77s
     0     0 130780.667    0  779 136936.000 130780.667  4.50%     -   77s
     0     0 130783.739    0  795 136936.000 130783.739  4.49%     -   77s
     0     0 131011.624    0  763 136936.000 131011.624  4.33%     -   78s
     0     0 131032.923    0  757 136936.000 131032.923  4.31%     -   78s
     0     0 131084.222    0  798 136936.000 131084.222  4.27%     -   78s
     0     0 131084.484    0  764 136936.000 131084.484  4.27%     -   79s
     0     2 131094.248    0  764 136936.000 131094.248  4.27%     -   80s
H   28    24                    136853.00000 136015.816  0.61%  1552   83s
H   31    24                    136828.00000 136018.746  0.59%  1468   83s
H   62    59                    136762.00000 136018.746  0.54%  1175   84s
H   63    59                    136750.00000 136018.746  0.53%  1173   84s
H   68    59                    136681.00000 136018.746  0.48%  1125   84s
H   96    92                    136669.00000 136018.746  0.48%   938   85s
H  101    92                    136666.00000 136018.746  0.47%   920   85s
H  142   132                    136366.00000 136018.746  0.25%   746   85s
H  149   132                    136351.00000 136018.746  0.24%   728   85s
H  183   146                    136348.00000 136018.746  0.24%   628   86s
H  183   146                    136347.00000 136018.746  0.24%   628   86s
   776   568 136272.445   24  202 136347.000 136035.476  0.23%   404   90s
H  786   524                    136301.00000 136035.476  0.19%   401   90s
H 1722   963                    136266.00000 136072.782  0.14%   341   96s
H 1757   960                    136265.00000 136072.782  0.14%   340   96s
H 1773   905                    136242.00000 136072.782  0.12%   342   96s
  2497  1316 136199.713   22  236 136242.000 136082.632  0.12%   346  100s
  3310  1633 136095.273   10  262 136242.000 136090.117  0.11%   335  106s
H 3354  1614                    136237.00000 136090.336  0.11%   334  106s
  4411  2149 136186.900   18  225 136237.000 136096.861  0.10%   332  111s
  5796  2469 136189.042   24  444 136237.000 136103.190  0.10%   324  117s
  5801  2472 136106.439   18  279 136237.000 136103.190  0.10%   324  120s
  5848  2506     cutoff   26      136237.000 136189.906  0.03%   330  125s

Cutting planes:
  Cover: 5
  Clique: 65
  MIR: 64
  StrongCG: 45
  Flow cover: 48
  GUB cover: 46
  Zero half: 25
  RLT: 1
  Relax-and-lift: 1

Explored 5948 nodes (2405187 simplex iterations) in 126.56 seconds (322.09 work units)
Thread count was 8 (of 8 available processors)

Solution count 10: 136237 136242 136265 ... 136366

Optimal solution found (tolerance 1.00e-04)
Best objective 1.362370000000e+05, best bound 1.362250000000e+05, gap 0.0088%
